Optimal - objective value 1271.00000000
      1 x_1                    1                     -12
      8 x_8                    1         -1.61457269322438
     12 x_12                   1                       0
     18 x_18                   1                       0
     24 x_24                   1         20.1317671092951
     27 x_27                   1                       0
     31 x_31                   1         19.0840994211781
     34 x_34                   1         4.23935989104525
     41 x_41                   1         7.2424242424242
     47 x_47                   1         8.36840313244809
     49 x_49                   1                       0
     56 x_56                   1                       1
     61 x_61                   1                       0
     64 x_64                   1                       0
     70 x_70                   1         1.85733741913516
     75 x_75                   1         26.6874361593463
     79 x_79                   1                       0
     82 x_82                   1                       0
     84 x_84                   1         -0.814436499829757
     88 x_88                   1                       0
     90 x_90                   1                       0
     95 x_95                   1                       0
     96 x_96                   1                       0
    101 x_101                  1                       0
    108 x_108                  1                       0
    112 x_112                  1                       0
    115 x_115                  1                       9
    121 x_121                  1                      12
    124 x_124                  1                       0
    132 x_132                  1                       0
    137 x_137                  1                       0
    138 x_138                  1                       0
    143 x_143                  1                       0
    146 x_146                  1                       0
    149 x_149                  1                       0
    153 x_153                  1                      10
    156 x_156                  1                       0
    163 x_163                  1                       0
    166 x_166                  1                       0
    169 x_169                  1                       0
    176 x_176                  1         12.9104528430371
    179 x_179                  1                       0
    181 x_181                  1         -9.13687436159349
    187 x_187                  1                       0
    193 x_193                  1         11.672454885938
    195 x_195                  1         8.50527749404157
    200 x_200                  1         10.3684031324481
    203 x_203                  1                       0
    211 x_211                  1                       0
    214 x_214                  1                       0
    218 x_218                  1         17.6179775280899
    226 x_226                  1         -5.59720803541029
    231 x_231                  1                       0
    232 x_232                  1                       0
    237 x_237                  1                       0
    246 x_246                  1                       0
    248 x_248                  1                       6
    251 x_251                  1                       0
    257 x_257                  1                       0
    260 x_260                  1                       0
    266 x_266                  1                       0
    269 x_269                  1                       0
    273 x_273                  1                       0
    277 x_277                  1                       0
    281 x_281                  1                       0
    285 x_285                  1                       0
    288 x_288                  1                       0
    295 x_295                  1         -0.602655771195085
    298 x_298                  1                       0
    301 x_301                  1                       0
    308 x_308                  1         0.0895471569628761
    311 x_311                  1                       0
    314 x_314                  1                       0
    318 x_318                  1                       0
    325 x_325                  1                       0
    329 x_329                  1                     -15
    332 x_332                  1         4.21450459652707
    336 x_336                  1                       0
    345 x_345                  1         -27.2686414708886
    348 x_348                  1                       8
Optimal - objective value 1271.00000000
      1 x_1                    1                     -12
      8 x_8                    1         -1.61457269322438
     12 x_12                   1                       0
     18 x_18                   1                       0
     24 x_24                   1         20.1317671092951
     27 x_27                   1                       0
     31 x_31                   1         19.0840994211781
     34 x_34                   1         4.23935989104525
     41 x_41                   1         7.2424242424242
     47 x_47                   1         8.36840313244809
     49 x_49                   1                       0
     56 x_56                   1                       1
     61 x_61                   1                       0
     64 x_64                   1                       0
     70 x_70                   1         1.85733741913516
     75 x_75                   1         26.6874361593463
     79 x_79                   1                       0
     82 x_82                   1                       0
     84 x_84                   1         -0.814436499829757
     88 x_88                   1                       0
     90 x_90                   1                       0
     95 x_95                   1                       0
     96 x_96                   1                       0
    101 x_101                  1                       0
    108 x_108                  1                       0
    112 x_112                  1                       0
    115 x_115                  1                       9
    121 x_121                  1                      12
    124 x_124                  1                       0
    132 x_132                  1                       0
    137 x_137                  1                       0
    138 x_138                  1                       0
    143 x_143                  1                       0
    146 x_146                  1                       0
    149 x_149                  1                       0
    153 x_153                  1                      10
    156 x_156                  1                       0
    163 x_163                  1                       0
    166 x_166                  1                       0
    169 x_169                  1                       0
    176 x_176                  1         12.9104528430371
    179 x_179                  1                       0
    181 x_181                  1         -9.13687436159349
    187 x_187                  1                       0
    193 x_193                  1         11.672454885938
    195 x_195                  1         8.50527749404157
    200 x_200                  1         10.3684031324481
    203 x_203                  1                       0
    211 x_211                  1                       0
    214 x_214                  1                       0
    218 x_218                  1         17.6179775280899
    226 x_226                  1         -5.59720803541029
    231 x_231                  1                       0
    232 x_232                  1                       0
    237 x_237                  1                       0
    246 x_246                  1                       0
    248 x_248                  1                       6
    251 x_251                  1                       0
    257 x_257                  1                       0
    260 x_260                  1                       0
    266 x_266                  1                       0
    269 x_269                  1                       0
    273 x_273                  1                       0
    277 x_277                  1                       0
    281 x_281                  1                       0
    285 x_285                  1                       0
    288 x_288                  1                       0
    295 x_295                  1         -0.602655771195085
    298 x_298                  1                       0
    301 x_301                  1                       0
    308 x_308                  1         0.0895471569628761
    311 x_311                  1                       0
    314 x_314                  1                       0
    318 x_318                  1                       0
    325 x_325                  1                       0
    329 x_329                  1                     -15
    332 x_332                  1         4.21450459652707
    336 x_336                  1                       0
    345 x_345                  1         -27.2686414708886
    348 x_348                  1                       8
